\ENCODING=ISO-8859-1
\Problem name: ilog.cplex

Minimize
 obj1:
Subject To
 CI1e0j0:   x0_1_0 + x1_0_0 + x0_2_0 + x2_0_0 + x0_3_0 + x3_0_0  = 1
 CI1e1j0:   x0_1_0 + x1_0_0 + x1_2_0 + x2_1_0 + x1_3_0 + x3_1_0  = 1
 CI1e2j0:   x0_2_0 + x2_0_0 + x1_2_0 + x2_1_0 + x2_3_0 + x3_2_0  = 1
 CI1e3j0:   x0_3_0 + x3_0_0 + x1_3_0 + x3_1_0 + x2_3_0 + x3_2_0  = 1
 CI1e0j1:   x0_1_1 + x1_0_1 + x0_2_1 + x2_0_1 + x0_3_1 + x3_0_1  = 1
 CI1e1j1:   x0_1_1 + x1_0_1 + x1_2_1 + x2_1_1 + x1_3_1 + x3_1_1  = 1
 CI1e2j1:   x0_2_1 + x2_0_1 + x1_2_1 + x2_1_1 + x2_3_1 + x3_2_1  = 1
 CI1e3j1:   x0_3_1 + x3_0_1 + x1_3_1 + x3_1_1 + x2_3_1 + x3_2_1  = 1
 CI1e0j2:   x0_1_2 + x1_0_2 + x0_2_2 + x2_0_2 + x0_3_2 + x3_0_2  = 1
 CI1e1j2:   x0_1_2 + x1_0_2 + x1_2_2 + x2_1_2 + x1_3_2 + x3_1_2  = 1
 CI1e2j2:   x0_2_2 + x2_0_2 + x1_2_2 + x2_1_2 + x2_3_2 + x3_2_2  = 1
 CI1e3j2:   x0_3_2 + x3_0_2 + x1_3_2 + x3_1_2 + x2_3_2 + x3_2_2  = 1
 CI1e0j3:   x0_1_3 + x1_0_3 + x0_2_3 + x2_0_3 + x0_3_3 + x3_0_3  = 1
 CI1e1j3:   x0_1_3 + x1_0_3 + x1_2_3 + x2_1_3 + x1_3_3 + x3_1_3  = 1
 CI1e2j3:   x0_2_3 + x2_0_3 + x1_2_3 + x2_1_3 + x2_3_3 + x3_2_3  = 1
 CI1e3j3:   x0_3_3 + x3_0_3 + x1_3_3 + x3_1_3 + x2_3_3 + x3_2_3  = 1
 CI1e0j4:   x0_1_4 + x1_0_4 + x0_2_4 + x2_0_4 + x0_3_4 + x3_0_4  = 1
 CI1e1j4:   x0_1_4 + x1_0_4 + x1_2_4 + x2_1_4 + x1_3_4 + x3_1_4  = 1
 CI1e2j4:   x0_2_4 + x2_0_4 + x1_2_4 + x2_1_4 + x2_3_4 + x3_2_4  = 1
 CI1e3j4:   x0_3_4 + x3_0_4 + x1_3_4 + x3_1_4 + x2_3_4 + x3_2_4  = 1
 CI1e0j5:   x0_1_5 + x1_0_5 + x0_2_5 + x2_0_5 + x0_3_5 + x3_0_5  = 1
 CI1e1j5:   x0_1_5 + x1_0_5 + x1_2_5 + x2_1_5 + x1_3_5 + x3_1_5  = 1
 CI1e2j5:   x0_2_5 + x2_0_5 + x1_2_5 + x2_1_5 + x2_3_5 + x3_2_5  = 1
 CI1e3j5:   x0_3_5 + x3_0_5 + x1_3_5 + x3_1_5 + x2_3_5 + x3_2_5  = 1
 CI2d0e0:   x0_0_0 + x0_0_1 + x0_0_2 + x0_0_3 + x0_0_4 + x0_0_5  = 0
 CI2d0e1:   x0_1_0 + x0_1_1 + x0_1_2 + x0_1_3 + x0_1_4 + x0_1_5  = 1
 CI2d0e2:   x0_2_0 + x0_2_1 + x0_2_2 + x0_2_3 + x0_2_4 + x0_2_5  = 1
 CI2d0e3:   x0_3_0 + x0_3_1 + x0_3_2 + x0_3_3 + x0_3_4 + x0_3_5  = 1
 CI2d1e0:   x1_0_0 + x1_0_1 + x1_0_2 + x1_0_3 + x1_0_4 + x1_0_5  = 1
 CI2d1e1:   x1_1_0 + x1_1_1 + x1_1_2 + x1_1_3 + x1_1_4 + x1_1_5  = 0
 CI2d1e2:   x1_2_0 + x1_2_1 + x1_2_2 + x1_2_3 + x1_2_4 + x1_2_5  = 1
 CI2d1e3:   x1_3_0 + x1_3_1 + x1_3_2 + x1_3_3 + x1_3_4 + x1_3_5  = 1
 CI2d2e0:   x2_0_0 + x2_0_1 + x2_0_2 + x2_0_3 + x2_0_4 + x2_0_5  = 1
 CI2d2e1:   x2_1_0 + x2_1_1 + x2_1_2 + x2_1_3 + x2_1_4 + x2_1_5  = 1
 CI2d2e2:   x2_2_0 + x2_2_1 + x2_2_2 + x2_2_3 + x2_2_4 + x2_2_5  = 0
 CI2d2e3:   x2_3_0 + x2_3_1 + x2_3_2 + x2_3_3 + x2_3_4 + x2_3_5  = 1
 CI2d3e0:   x3_0_0 + x3_0_1 + x3_0_2 + x3_0_3 + x3_0_4 + x3_0_5  = 1
 CI2d3e1:   x3_1_0 + x3_1_1 + x3_1_2 + x3_1_3 + x3_1_4 + x3_1_5  = 1
 CI2d3e2:   x3_2_0 + x3_2_1 + x3_2_2 + x3_2_3 + x3_2_4 + x3_2_5  = 1
 CI2d3e3:   x3_3_0 + x3_3_1 + x3_3_2 + x3_3_3 + x3_3_4 + x3_3_5  = 0
 CI3d0e1:   x0_1_0 + x1_0_0 + x0_1_1 + x1_0_1 + x0_1_2 + x1_0_2  = 1
 CI3d0e2:   x0_2_0 + x2_0_0 + x0_2_1 + x2_0_1 + x0_2_2 + x2_0_2  = 1
 CI3d0e3:   x0_3_0 + x3_0_0 + x0_3_1 + x3_0_1 + x0_3_2 + x3_0_2  = 1
 CI3d1e0:   x0_1_0 + x1_0_0 + x0_1_1 + x1_0_1 + x0_1_2 + x1_0_2  = 1
 CI3d1e2:   x1_2_0 + x2_1_0 + x1_2_1 + x2_1_1 + x1_2_2 + x2_1_2  = 1
 CI3d1e3:   x1_3_0 + x3_1_0 + x1_3_1 + x3_1_1 + x1_3_2 + x3_1_2  = 1
 CI3d2e0:   x0_2_0 + x2_0_0 + x0_2_1 + x2_0_1 + x0_2_2 + x2_0_2  = 1
 CI3d2e1:   x1_2_0 + x2_1_0 + x1_2_1 + x2_1_1 + x1_2_2 + x2_1_2  = 1
 CI3d2e3:   x2_3_0 + x3_2_0 + x2_3_1 + x3_2_1 + x2_3_2 + x3_2_2  = 1
 CI3d3e0:   x0_3_0 + x3_0_0 + x0_3_1 + x3_0_1 + x0_3_2 + x3_0_2  = 1
 CI3d3e1:   x1_3_0 + x3_1_0 + x1_3_1 + x3_1_1 + x1_3_2 + x3_1_2  = 1
 CI3d3e2:   x2_3_0 + x3_2_0 + x2_3_1 + x3_2_1 + x2_3_2 + x3_2_2  = 1
 CNPD1j1e0: x0_1_0 + x0_2_0 + x0_3_0 + x0_1_1 + x0_2_1 + x0_3_1 - y1_0 <= 1
 CNPE1j1e0: x1_0_0 + x2_0_0 + x3_0_0 + x1_0_1 + x2_0_1 + x3_0_1 - z1_0 <= 1
 CNPD2j1e0: - x0_1_0 - x0_2_0 - x0_3_0 + y1_0 <= 0
 CNPD3j1e0: - x0_1_1 - x0_2_1 - x0_3_1 + y1_0 <= 0
 CNPE2j1e0: - x1_0_0 - x2_0_0 - x3_0_0 + z1_0 <= 0
 CNPE3j1e0: - x1_0_1 - x2_0_1 - x3_0_1 + z1_0 <= 0
 CNPD1j2e0: x0_1_1 + x0_2_1 + x0_3_1 + x0_1_2 + x0_2_2 + x0_3_2 - y2_0 <= 1
 CNPE1j2e0: x1_0_1 + x2_0_1 + x3_0_1 + x1_0_2 + x2_0_2 + x3_0_2 - z2_0 <= 1
 CNPD2j2e0: - x0_1_1 - x0_2_1 - x0_3_1 + y2_0 <= 0
 CNPD3j2e0: - x0_1_2 - x0_2_2 - x0_3_2 + y2_0 <= 0
 CNPE2j2e0: - x1_0_1 - x2_0_1 - x3_0_1 + z2_0 <= 0
 CNPE3j2e0: - x1_0_2 - x2_0_2 - x3_0_2 + z2_0 <= 0
 CNPD1j3e0: x0_1_2 + x0_2_2 + x0_3_2 + x0_1_3 + x0_2_3 + x0_3_3 - y3_0 <= 1
 CNPE1j3e0: x1_0_2 + x2_0_2 + x3_0_2 + x1_0_3 + x2_0_3 + x3_0_3 - z3_0 <= 1
 CNPD2j3e0: - x0_1_2 - x0_2_2 - x0_3_2 + y3_0 <= 0
 CNPD3j3e0: - x0_1_3 - x0_2_3 - x0_3_3 + y3_0 <= 0
 CNPE2j3e0: - x1_0_2 - x2_0_2 - x3_0_2 + z3_0 <= 0
 CNPE3j3e0: - x1_0_3 - x2_0_3 - x3_0_3 + z3_0 <= 0
 CNPD1j4e0: x0_1_3 + x0_2_3 + x0_3_3 + x0_1_4 + x0_2_4 + x0_3_4 - y4_0 <= 1
 CNPE1j4e0: x1_0_3 + x2_0_3 + x3_0_3 + x1_0_4 + x2_0_4 + x3_0_4 - z4_0 <= 1
 CNPD2j4e0: - x0_1_3 - x0_2_3 - x0_3_3 + y4_0 <= 0
 CNPD3j4e0: - x0_1_4 - x0_2_4 - x0_3_4 + y4_0 <= 0
 CNPE2j4e0: - x1_0_3 - x2_0_3 - x3_0_3 + z4_0 <= 0
 CNPE3j4e0: - x1_0_4 - x2_0_4 - x3_0_4 + z4_0 <= 0
 CNPD1j5e0: x0_1_4 + x0_2_4 + x0_3_4 + x0_1_5 + x0_2_5 + x0_3_5 - y5_0 <= 1
 CNPE1j5e0: x1_0_4 + x2_0_4 + x3_0_4 + x1_0_5 + x2_0_5 + x3_0_5 - z5_0 <= 1
 CNPD2j5e0: - x0_1_4 - x0_2_4 - x0_3_4 + y5_0 <= 0
 CNPD3j5e0: - x0_1_5 - x0_2_5 - x0_3_5 + y5_0 <= 0
 CNPE2j5e0: - x1_0_4 - x2_0_4 - x3_0_4 + z5_0 <= 0
 CNPE3j5e0: - x1_0_5 - x2_0_5 - x3_0_5 + z5_0 <= 0
 CNPD1j1e1: x1_0_0 + x1_2_0 + x1_3_0 + x1_0_1 + x1_2_1 + x1_3_1 - y1_1 <= 1
 CNPE1j1e1: x0_1_0 + x2_1_0 + x3_1_0 + x0_1_1 + x2_1_1 + x3_1_1 - z1_1 <= 1
 CNPD2j1e1: - x1_0_0 - x1_2_0 - x1_3_0 + y1_1 <= 0
 CNPD3j1e1: - x1_0_1 - x1_2_1 - x1_3_1 + y1_1 <= 0
 CNPE2j1e1: - x0_1_0 - x2_1_0 - x3_1_0 + z1_1 <= 0
 CNPE3j1e1: - x0_1_1 - x2_1_1 - x3_1_1 + z1_1 <= 0
 CNPD1j2e1: x1_0_1 + x1_2_1 + x1_3_1 + x1_0_2 + x1_2_2 + x1_3_2 - y2_1 <= 1
 CNPE1j2e1: x0_1_1 + x2_1_1 + x3_1_1 + x0_1_2 + x2_1_2 + x3_1_2 - z2_1 <= 1
 CNPD2j2e1: - x1_0_1 - x1_2_1 - x1_3_1 + y2_1 <= 0
 CNPD3j2e1: - x1_0_2 - x1_2_2 - x1_3_2 + y2_1 <= 0
 CNPE2j2e1: - x0_1_1 - x2_1_1 - x3_1_1 + z2_1 <= 0
 CNPE3j2e1: - x0_1_2 - x2_1_2 - x3_1_2 + z2_1 <= 0
 CNPD1j3e1: x1_0_2 + x1_2_2 + x1_3_2 + x1_0_3 + x1_2_3 + x1_3_3 - y3_1 <= 1
 CNPE1j3e1: x0_1_2 + x2_1_2 + x3_1_2 + x0_1_3 + x2_1_3 + x3_1_3 - z3_1 <= 1
 CNPD2j3e1: - x1_0_2 - x1_2_2 - x1_3_2 + y3_1 <= 0
 CNPD3j3e1: - x1_0_3 - x1_2_3 - x1_3_3 + y3_1 <= 0
 CNPE2j3e1: - x0_1_2 - x2_1_2 - x3_1_2 + z3_1 <= 0
 CNPE3j3e1: - x0_1_3 - x2_1_3 - x3_1_3 + z3_1 <= 0
 CNPD1j4e1: x1_0_3 + x1_2_3 + x1_3_3 + x1_0_4 + x1_2_4 + x1_3_4 - y4_1 <= 1
 CNPE1j4e1: x0_1_3 + x2_1_3 + x3_1_3 + x0_1_4 + x2_1_4 + x3_1_4 - z4_1 <= 1
 CNPD2j4e1: - x1_0_3 - x1_2_3 - x1_3_3 + y4_1 <= 0
 CNPD3j4e1: - x1_0_4 - x1_2_4 - x1_3_4 + y4_1 <= 0
 CNPE2j4e1: - x0_1_3 - x2_1_3 - x3_1_3 + z4_1 <= 0
 CNPE3j4e1: - x0_1_4 - x2_1_4 - x3_1_4 + z4_1 <= 0
 CNPD1j5e1: x1_0_4 + x1_2_4 + x1_3_4 + x1_0_5 + x1_2_5 + x1_3_5 - y5_1 <= 1
 CNPE1j5e1: x0_1_4 + x2_1_4 + x3_1_4 + x0_1_5 + x2_1_5 + x3_1_5 - z5_1 <= 1
 CNPD2j5e1: - x1_0_4 - x1_2_4 - x1_3_4 + y5_1 <= 0
 CNPD3j5e1: - x1_0_5 - x1_2_5 - x1_3_5 + y5_1 <= 0
 CNPE2j5e1: - x0_1_4 - x2_1_4 - x3_1_4 + z5_1 <= 0
 CNPE3j5e1: - x0_1_5 - x2_1_5 - x3_1_5 + z5_1 <= 0
 CNPD1j1e2: x2_0_0 + x2_1_0 + x2_3_0 + x2_0_1 + x2_1_1 + x2_3_1 - y1_2 <= 1
 CNPE1j1e2: x0_2_0 + x1_2_0 + x3_2_0 + x0_2_1 + x1_2_1 + x3_2_1 - z1_2 <= 1
 CNPD2j1e2: - x2_0_0 - x2_1_0 - x2_3_0 + y1_2 <= 0
 CNPD3j1e2: - x2_0_1 - x2_1_1 - x2_3_1 + y1_2 <= 0
 CNPE2j1e2: - x0_2_0 - x1_2_0 - x3_2_0 + z1_2 <= 0
 CNPE3j1e2: - x0_2_1 - x1_2_1 - x3_2_1 + z1_2 <= 0
 CNPD1j2e2: x2_0_1 + x2_1_1 + x2_3_1 + x2_0_2 + x2_1_2 + x2_3_2 - y2_2 <= 1
 CNPE1j2e2: x0_2_1 + x1_2_1 + x3_2_1 + x0_2_2 + x1_2_2 + x3_2_2 - z2_2 <= 1
 CNPD2j2e2: - x2_0_1 - x2_1_1 - x2_3_1 + y2_2 <= 0
 CNPD3j2e2: - x2_0_2 - x2_1_2 - x2_3_2 + y2_2 <= 0
 CNPE2j2e2: - x0_2_1 - x1_2_1 - x3_2_1 + z2_2 <= 0
 CNPE3j2e2: - x0_2_2 - x1_2_2 - x3_2_2 + z2_2 <= 0
 CNPD1j3e2: x2_0_2 + x2_1_2 + x2_3_2 + x2_0_3 + x2_1_3 + x2_3_3 - y3_2 <= 1
 CNPE1j3e2: x0_2_2 + x1_2_2 + x3_2_2 + x0_2_3 + x1_2_3 + x3_2_3 - z3_2 <= 1
 CNPD2j3e2: - x2_0_2 - x2_1_2 - x2_3_2 + y3_2 <= 0
 CNPD3j3e2: - x2_0_3 - x2_1_3 - x2_3_3 + y3_2 <= 0
 CNPE2j3e2: - x0_2_2 - x1_2_2 - x3_2_2 + z3_2 <= 0
 CNPE3j3e2: - x0_2_3 - x1_2_3 - x3_2_3 + z3_2 <= 0
 CNPD1j4e2: x2_0_3 + x2_1_3 + x2_3_3 + x2_0_4 + x2_1_4 + x2_3_4 - y4_2 <= 1
 CNPE1j4e2: x0_2_3 + x1_2_3 + x3_2_3 + x0_2_4 + x1_2_4 + x3_2_4 - z4_2 <= 1
 CNPD2j4e2: - x2_0_3 - x2_1_3 - x2_3_3 + y4_2 <= 0
 CNPD3j4e2: - x2_0_4 - x2_1_4 - x2_3_4 + y4_2 <= 0
 CNPE2j4e2: - x0_2_3 - x1_2_3 - x3_2_3 + z4_2 <= 0
 CNPE3j4e2: - x0_2_4 - x1_2_4 - x3_2_4 + z4_2 <= 0
 CNPD1j5e2: x2_0_4 + x2_1_4 + x2_3_4 + x2_0_5 + x2_1_5 + x2_3_5 - y5_2 <= 1
 CNPE1j5e2: x0_2_4 + x1_2_4 + x3_2_4 + x0_2_5 + x1_2_5 + x3_2_5 - z5_2 <= 1
 CNPD2j5e2: - x2_0_4 - x2_1_4 - x2_3_4 + y5_2 <= 0
 CNPD3j5e2: - x2_0_5 - x2_1_5 - x2_3_5 + y5_2 <= 0
 CNPE2j5e2: - x0_2_4 - x1_2_4 - x3_2_4 + z5_2 <= 0
 CNPE3j5e2: - x0_2_5 - x1_2_5 - x3_2_5 + z5_2 <= 0
 CNPD1j1e3: x3_0_0 + x3_1_0 + x3_2_0 + x3_0_1 + x3_1_1 + x3_2_1 - y1_3 <= 1
 CNPE1j1e3: x0_3_0 + x1_3_0 + x2_3_0 + x0_3_1 + x1_3_1 + x2_3_1 - z1_3 <= 1
 CNPD2j1e3: - x3_0_0 - x3_1_0 - x3_2_0 + y1_3 <= 0
 CNPD3j1e3: - x3_0_1 - x3_1_1 - x3_2_1 + y1_3 <= 0
 CNPE2j1e3: - x0_3_0 - x1_3_0 - x2_3_0 + z1_3 <= 0
 CNPE3j1e3: - x0_3_1 - x1_3_1 - x2_3_1 + z1_3 <= 0
 CNPD1j2e3: x3_0_1 + x3_1_1 + x3_2_1 + x3_0_2 + x3_1_2 + x3_2_2 - y2_3 <= 1
 CNPE1j2e3: x0_3_1 + x1_3_1 + x2_3_1 + x0_3_2 + x1_3_2 + x2_3_2 - z2_3 <= 1
 CNPD2j2e3: - x3_0_1 - x3_1_1 - x3_2_1 + y2_3 <= 0
 CNPD3j2e3: - x3_0_2 - x3_1_2 - x3_2_2 + y2_3 <= 0
 CNPE2j2e3: - x0_3_1 - x1_3_1 - x2_3_1 + z2_3 <= 0
 CNPE3j2e3: - x0_3_2 - x1_3_2 - x2_3_2 + z2_3 <= 0
 CNPD1j3e3: x3_0_2 + x3_1_2 + x3_2_2 + x3_0_3 + x3_1_3 + x3_2_3 - y3_3 <= 1
 CNPE1j3e3: x0_3_2 + x1_3_2 + x2_3_2 + x0_3_3 + x1_3_3 + x2_3_3 - z3_3 <= 1
 CNPD2j3e3: - x3_0_2 - x3_1_2 - x3_2_2 + y3_3 <= 0
 CNPD3j3e3: - x3_0_3 - x3_1_3 - x3_2_3 + y3_3 <= 0
 CNPE2j3e3: - x0_3_2 - x1_3_2 - x2_3_2 + z3_3 <= 0
 CNPE3j3e3: - x0_3_3 - x1_3_3 - x2_3_3 + z3_3 <= 0
 CNPD1j4e3: x3_0_3 + x3_1_3 + x3_2_3 + x3_0_4 + x3_1_4 + x3_2_4 - y4_3 <= 1
 CNPE1j4e3: x0_3_3 + x1_3_3 + x2_3_3 + x0_3_4 + x1_3_4 + x2_3_4 - z4_3 <= 1
 CNPD2j4e3: - x3_0_3 - x3_1_3 - x3_2_3 + y4_3 <= 0
 CNPD3j4e3: - x3_0_4 - x3_1_4 - x3_2_4 + y4_3 <= 0
 CNPE2j4e3: - x0_3_3 - x1_3_3 - x2_3_3 + z4_3 <= 0
 CNPE3j4e3: - x0_3_4 - x1_3_4 - x2_3_4 + z4_3 <= 0
 CNPD1j5e3: x3_0_4 + x3_1_4 + x3_2_4 + x3_0_5 + x3_1_5 + x3_2_5 - y5_3 <= 1
 CNPE1j5e3: x0_3_4 + x1_3_4 + x2_3_4 + x0_3_5 + x1_3_5 + x2_3_5 - z5_3 <= 1
 CNPD2j5e3: - x3_0_4 - x3_1_4 - x3_2_4 + y5_3 <= 0
 CNPD3j5e3: - x3_0_5 - x3_1_5 - x3_2_5 + y5_3 <= 0
 CNPE2j5e3: - x0_3_4 - x1_3_4 - x2_3_4 + z5_3 <= 0
 CNPE3j5e3: - x0_3_5 - x1_3_5 - x2_3_5 + z5_3 <= 0
 c173:      y1_0 + z1_0 + y2_0 + z2_0 + y3_0 + z3_0 + y4_0 + z4_0 + y5_0 + z5_0
            + y1_1 + z1_1 + y2_1 + z2_1 + y3_1 + z3_1 + y4_1 + z4_1 + y5_1
            + z5_1 <= 0
Bounds
 0 <= x0_1_0 <= 1
 0 <= x1_0_0 <= 1
 0 <= x0_2_0 <= 1
 0 <= x2_0_0 <= 1
 0 <= x0_3_0 <= 1
 0 <= x3_0_0 <= 1
 0 <= x1_2_0 <= 1
 0 <= x2_1_0 <= 1
 0 <= x1_3_0 <= 1
 0 <= x3_1_0 <= 1
 0 <= x2_3_0 <= 1
 0 <= x3_2_0 <= 1
 0 <= x0_1_1 <= 1
 0 <= x1_0_1 <= 1
 0 <= x0_2_1 <= 1
 0 <= x2_0_1 <= 1
 0 <= x0_3_1 <= 1
 0 <= x3_0_1 <= 1
 0 <= x1_2_1 <= 1
 0 <= x2_1_1 <= 1
 0 <= x1_3_1 <= 1
 0 <= x3_1_1 <= 1
 0 <= x2_3_1 <= 1
 0 <= x3_2_1 <= 1
 0 <= x0_1_2 <= 1
 0 <= x1_0_2 <= 1
 0 <= x0_2_2 <= 1
 0 <= x2_0_2 <= 1
 0 <= x0_3_2 <= 1
 0 <= x3_0_2 <= 1
 0 <= x1_2_2 <= 1
 0 <= x2_1_2 <= 1
 0 <= x1_3_2 <= 1
 0 <= x3_1_2 <= 1
 0 <= x2_3_2 <= 1
 0 <= x3_2_2 <= 1
 0 <= x0_1_3 <= 1
 0 <= x1_0_3 <= 1
 0 <= x0_2_3 <= 1
 0 <= x2_0_3 <= 1
 0 <= x0_3_3 <= 1
 0 <= x3_0_3 <= 1
 0 <= x1_2_3 <= 1
 0 <= x2_1_3 <= 1
 0 <= x1_3_3 <= 1
 0 <= x3_1_3 <= 1
 0 <= x2_3_3 <= 1
 0 <= x3_2_3 <= 1
 0 <= x0_1_4 <= 1
 0 <= x1_0_4 <= 1
 0 <= x0_2_4 <= 1
 0 <= x2_0_4 <= 1
 0 <= x0_3_4 <= 1
 0 <= x3_0_4 <= 1
 0 <= x1_2_4 <= 1
 0 <= x2_1_4 <= 1
 0 <= x1_3_4 <= 1
 0 <= x3_1_4 <= 1
 0 <= x2_3_4 <= 1
 0 <= x3_2_4 <= 1
 0 <= x0_1_5 <= 1
 0 <= x1_0_5 <= 1
 0 <= x0_2_5 <= 1
 0 <= x2_0_5 <= 1
 0 <= x0_3_5 <= 1
 0 <= x3_0_5 <= 1
 0 <= x1_2_5 <= 1
 0 <= x2_1_5 <= 1
 0 <= x1_3_5 <= 1
 0 <= x3_1_5 <= 1
 0 <= x2_3_5 <= 1
 0 <= x3_2_5 <= 1
 0 <= x0_0_0 <= 1
 0 <= x0_0_1 <= 1
 0 <= x0_0_2 <= 1
 0 <= x0_0_3 <= 1
 0 <= x0_0_4 <= 1
 0 <= x0_0_5 <= 1
 0 <= x1_1_0 <= 1
 0 <= x1_1_1 <= 1
 0 <= x1_1_2 <= 1
 0 <= x1_1_3 <= 1
 0 <= x1_1_4 <= 1
 0 <= x1_1_5 <= 1
 0 <= x2_2_0 <= 1
 0 <= x2_2_1 <= 1
 0 <= x2_2_2 <= 1
 0 <= x2_2_3 <= 1
 0 <= x2_2_4 <= 1
 0 <= x2_2_5 <= 1
 0 <= x3_3_0 <= 1
 0 <= x3_3_1 <= 1
 0 <= x3_3_2 <= 1
 0 <= x3_3_3 <= 1
 0 <= x3_3_4 <= 1
 0 <= x3_3_5 <= 1
 0 <= y1_0 <= 1
 0 <= z1_0 <= 1
 0 <= y2_0 <= 1
 0 <= z2_0 <= 1
 0 <= y3_0 <= 1
 0 <= z3_0 <= 1
 0 <= y4_0 <= 1
 0 <= z4_0 <= 1
 0 <= y5_0 <= 1
 0 <= z5_0 <= 1
 0 <= y1_1 <= 1
 0 <= z1_1 <= 1
 0 <= y2_1 <= 1
 0 <= z2_1 <= 1
 0 <= y3_1 <= 1
 0 <= z3_1 <= 1
 0 <= y4_1 <= 1
 0 <= z4_1 <= 1
 0 <= y5_1 <= 1
 0 <= z5_1 <= 1
 0 <= y1_2 <= 1
 0 <= z1_2 <= 1
 0 <= y2_2 <= 1
 0 <= z2_2 <= 1
 0 <= y3_2 <= 1
 0 <= z3_2 <= 1
 0 <= y4_2 <= 1
 0 <= z4_2 <= 1
 0 <= y5_2 <= 1
 0 <= z5_2 <= 1
 0 <= y1_3 <= 1
 0 <= z1_3 <= 1
 0 <= y2_3 <= 1
 0 <= z2_3 <= 1
 0 <= y3_3 <= 1
 0 <= z3_3 <= 1
 0 <= y4_3 <= 1
 0 <= z4_3 <= 1
 0 <= y5_3 <= 1
 0 <= z5_3 <= 1
Generals
 x0_1_0  x1_0_0  x0_2_0  x2_0_0  x0_3_0  x3_0_0  x1_2_0  x2_1_0  x1_3_0 
 x3_1_0  x2_3_0  x3_2_0  x0_1_1  x1_0_1  x0_2_1  x2_0_1  x0_3_1  x3_0_1 
 x1_2_1  x2_1_1  x1_3_1  x3_1_1  x2_3_1  x3_2_1  x0_1_2  x1_0_2  x0_2_2 
 x2_0_2  x0_3_2  x3_0_2  x1_2_2  x2_1_2  x1_3_2  x3_1_2  x2_3_2  x3_2_2 
 x0_1_3  x1_0_3  x0_2_3  x2_0_3  x0_3_3  x3_0_3  x1_2_3  x2_1_3  x1_3_3 
 x3_1_3  x2_3_3  x3_2_3  x0_1_4  x1_0_4  x0_2_4  x2_0_4  x0_3_4  x3_0_4 
 x1_2_4  x2_1_4  x1_3_4  x3_1_4  x2_3_4  x3_2_4  x0_1_5  x1_0_5  x0_2_5 
 x2_0_5  x0_3_5  x3_0_5  x1_2_5  x2_1_5  x1_3_5  x3_1_5  x2_3_5  x3_2_5 
 x0_0_0  x0_0_1  x0_0_2  x0_0_3  x0_0_4  x0_0_5  x1_1_0  x1_1_1  x1_1_2 
 x1_1_3  x1_1_4  x1_1_5  x2_2_0  x2_2_1  x2_2_2  x2_2_3  x2_2_4  x2_2_5 
 x3_3_0  x3_3_1  x3_3_2  x3_3_3  x3_3_4  x3_3_5  y1_0  z1_0  y2_0  z2_0  y3_0 
 z3_0  y4_0  z4_0  y5_0  z5_0  y1_1  z1_1  y2_1  z2_1  y3_1  z3_1  y4_1  z4_1 
 y5_1  z5_1  y1_2  z1_2  y2_2  z2_2  y3_2  z3_2  y4_2  z4_2  y5_2  z5_2  y1_3 
 z1_3  y2_3  z2_3  y3_3  z3_3  y4_3  z4_3  y5_3  z5_3 
End
